10
1 0 1
2 0 12
2 1 3
3 0 2
3 1 2
3 2 11
4 0 10
4 1 6
4 2 1
4 3 2
5 0 4
5 1 8
5 2 2
5 3 9
5 4 9
6 0 1
6 1 11
6 2 11
6 3 11
6 4 9
6 5 10
7 0 5
7 1 5
7 2 9
7 3 5
7 4 4
7 5 6
7 6 11
8 0 10
8 1 11
8 2 11
8 3 1
8 4 8
8 5 5
8 6 3
8 7 5
9 0 11
9 1 3
9 2 7
9 3 6
9 4 2
9 5 9
9 6 5
9 7 2
9 8 6
